results_rootrelaxation/bin018_060_031.srr.sol
solution status: optimal solution found
objective value:                                    1
_var1834_                          0.0837939602486214 	(obj:0)
_var2627_                          0.0637409834068523 	(obj:0)
_var2664_                          0.0320418911883511 	(obj:0)
_var2670_                           0.102128294990812 	(obj:0)
_var2722_                          0.0890457391082882 	(obj:0)
_var2730_                          0.0206794241238822 	(obj:0)
_var2745_                           0.107831860531203 	(obj:1)
_var2746_                          0.0624164651714092 	(obj:0)
_var2771_                           0.155332230206073 	(obj:0)
_var2777_                          0.0546764992608257 	(obj:0)
_var2780_                          0.0543798582906529 	(obj:0)
_var2781_                           0.377668516589661 	(obj:0)
_var2783_                         0.00638777864569581 	(obj:0)
_var2792_                          0.0554447532555853 	(obj:0)
_var2799_                          0.0150806644013598 	(obj:0)
_var2809_                           0.104067653941394 	(obj:0)
_var2811_                          0.0135367082101687 	(obj:0)
_var2816_                           0.149550378966344 	(obj:0)
_var2818_                          0.0633141102357077 	(obj:0)
_var2819_                          0.0637431555917248 	(obj:0)
_var2828_                           0.161819657749876 	(obj:0)
_var2835_                           0.105181718447328 	(obj:0)
_var2839_                            0.17319538966395 	(obj:0)
_var2842_                          0.0487935979311964 	(obj:0)
_var2844_                            0.24417109204322 	(obj:0)
_var2847_                           0.137926920882467 	(obj:1)
_var2854_                          0.0716877399518921 	(obj:0)
_var2856_                          0.0775675944621779 	(obj:0)
_var2862_                         0.00452146359191346 	(obj:0)
_var2864_                            0.12443833773231 	(obj:1)
_var2866_                          0.0851009001132509 	(obj:0)
_var2873_                           0.156088065230548 	(obj:0)
_var2874_                           0.390531910329616 	(obj:0)
_var2875_                           0.273007166814895 	(obj:0)
_var2877_                           0.132492225463902 	(obj:0)
_var2880_                            0.10855808304831 	(obj:0)
_var2882_                           0.197080404525159 	(obj:0)
_var2886_                           0.114274445186543 	(obj:0)
_var2887_                          0.0828815997093568 	(obj:0)
_var2890_                           0.112105748344722 	(obj:0)
_var2895_                           0.200452055628935 	(obj:0)
_var2898_                          0.0930736040113835 	(obj:1)
_var2903_                           0.241577194443766 	(obj:0)
_var2914_                           0.167570024789824 	(obj:0)
_var2915_                          0.0312778857806319 	(obj:1)
_var2916_                           0.127059135976551 	(obj:0)
_var2917_                           0.213280214898439 	(obj:0)
_var2921_                           0.138117890630629 	(obj:0)
_var2923_                           0.102012396174601 	(obj:0)
_var2927_                          0.0920417747367981 	(obj:0)
_var2928_                          0.0617116439762098 	(obj:0)
_var2929_                           0.107528219715237 	(obj:0)
_var2930_                           0.300080166453545 	(obj:0)
_var2931_                          0.0751189221415446 	(obj:0)
_var2935_                           0.132074565264404 	(obj:0)
_var2938_                           0.159496464891376 	(obj:0)
_var2939_                           0.190833906696989 	(obj:0)
_var2948_                          0.0683032442044313 	(obj:0)
_var2950_                          0.0159859019657461 	(obj:0)
_var2952_                          0.0916807294499143 	(obj:0)
_var2954_                          0.0234678882720921 	(obj:0)
_var2955_                          0.0751823603724623 	(obj:0)
_var2957_                           0.248257792689752 	(obj:0)
_var2959_                           0.178800450663101 	(obj:0)
_var2961_                          0.0132667034397032 	(obj:0)
_var2962_                           0.197246916696614 	(obj:0)
_var2964_                           0.026697092498494 	(obj:0)
_var2965_                          0.0230014869359931 	(obj:0)
_var2966_                           0.149850323595545 	(obj:1)
_var2970_                           0.101120582892101 	(obj:0)
_var2972_                           0.317942604696405 	(obj:0)
_var2975_                          0.0312050450099692 	(obj:0)
_var2976_                           0.210945843748944 	(obj:0)
_var2977_                         0.00174590602475977 	(obj:0)
_var2979_                           0.167335906397862 	(obj:0)
_var2980_                          0.0189133461326361 	(obj:0)
_var2981_                          0.0980572045599866 	(obj:0)
_var2982_                           0.210733610683115 	(obj:0)
_var2984_                           0.208085136969945 	(obj:0)
_var2988_                           0.173973725751034 	(obj:0)
_var2990_                           0.193114699662416 	(obj:0)
_var2994_                           0.119411699947642 	(obj:0)
_var2995_                            0.41163493653616 	(obj:0)
_var2997_                           0.067098836498752 	(obj:0)
_var2999_                          0.0364926794053966 	(obj:0)
_var3001_                           0.100711897618912 	(obj:0)
_var3003_                           0.276007579762338 	(obj:0)
_var3004_                           0.172987245180219 	(obj:0)
_var3006_                          0.0892022856957664 	(obj:0)
_var3011_                           0.185904014659134 	(obj:0)
_var3013_                           0.161331591545587 	(obj:0)
_var3014_                          0.0855649021811422 	(obj:0)
_var3015_                            0.12584524871308 	(obj:0)
_var3018_                          0.0833642596453295 	(obj:0)
_var3022_                           0.121996158270072 	(obj:0)
_var3024_                           0.254592585730098 	(obj:0)
_var3025_                           0.367793600950843 	(obj:0)
_var3026_                          0.0468032422363657 	(obj:0)
_var3027_                         0.00125128845142987 	(obj:0)
_var3032_                           0.125345719435477 	(obj:0)
_var3033_                           0.129679778602303 	(obj:0)
_var3034_                           0.260755724258834 	(obj:1)
_var3035_                          0.0845645465252109 	(obj:0)
_var3036_                           0.176113155567123 	(obj:0)
_var3037_                           0.095662124548748 	(obj:0)
_var3038_                           0.313868598636874 	(obj:0)
_var3039_                          0.0736873715391173 	(obj:0)
_var3041_                          0.0186188271278423 	(obj:0)
_var3043_                           0.139116892683731 	(obj:0)
_var3044_                          0.0446823490710997 	(obj:0)
_var3045_                          0.0774958389945901 	(obj:0)
_var3047_                          0.0267694872398632 	(obj:0)
_var3051_                           0.094845343207626 	(obj:1)
_var3053_                          0.0188961308423728 	(obj:0)
_var3054_                          0.0789832415885423 	(obj:0)
_var3055_                           0.120432452342773 	(obj:0)
_var3057_                          0.0518859275974494 	(obj:0)
_var3059_                            0.20972907142369 	(obj:0)
_var3060_                         0.00445726294968557 	(obj:0)
_var3062_                           0.177059563815115 	(obj:0)
_var3063_                            0.13313381862376 	(obj:0)
_var3066_                          0.0803185504773017 	(obj:0)
_var3067_                          0.0732437286066392 	(obj:0)
_var3070_                           0.108261657865272 	(obj:0)
_var3071_                           0.148978199741332 	(obj:0)
_var3072_                         0.00170731876482335 	(obj:0)
_var3073_                            0.08252738785434 	(obj:0)
_var3075_                           0.127039983543295 	(obj:0)
_var3076_                          0.0594919616168058 	(obj:0)
_var3077_                          0.0637704316992527 	(obj:0)
_var3078_                          0.0012811666710775 	(obj:0)
_var3080_                         0.000546614409912161 	(obj:0)
_var3081_                             0.0795138326289 	(obj:0)
_var3082_                           0.167935679486901 	(obj:0)
_var3083_                         0.00910168904933176 	(obj:0)
_var3084_                          0.0717046809667755 	(obj:0)
_var3089_                           0.158565554894136 	(obj:0)
_var3091_                          0.0215477108148296 	(obj:0)
_var3093_                          0.0127151771443083 	(obj:0)
_var3095_                          0.0703786960739174 	(obj:0)
_var3096_                          0.0718926966542349 	(obj:0)
_var3097_                           0.116572258295874 	(obj:0)
_var3098_                          0.0140859888540847 	(obj:0)
_var3099_                           0.108335868313178 	(obj:0)
_var3101_                          0.0355937606156731 	(obj:0)
_var3103_                         0.00261140990423211 	(obj:0)
_var3105_                          0.0119825162770175 	(obj:0)
_var3106_                          0.0928885774550255 	(obj:0)
_var3109_                          0.0603182970388449 	(obj:0)
_var3111_                          0.0403580975135227 	(obj:0)
_var3113_                         0.00443737398134024 	(obj:0)
_var3114_                           0.184010296026595 	(obj:0)
